[runlim] version:		2.0.0rc12
[runlim] host:			ap-Precision-7550
[runlim] time limit:		311040000 seconds
[runlim] real time limit:	600 seconds
[runlim] space limit:		14000 MB
[runlim] argv[0]:		python3
[runlim] argv[1]:		cp_no.py
[runlim] argv[2]:		graph01
[runlim] start:			Wed Mar 25 04:24:06 2026
[runlim] child:			70043
--- Building model for 200 variables ---
--- Solving with CP Optimizer (Integer Mode) ---
 ! --------------------------------------------------- CP Optimizer 22.1.1.0 --
 ! Minimization problem - 200 variables, 1134 constraints
 ! LogVerbosity         = Terse
 ! Initial process time : 0.00s (0.00s extraction + 0.00s propagation)
 !  . Log search space  : 988.9 (before), 988.9 (after)
 !  . Memory usage      : 805.4 kB (before), 805.4 kB (after)
 ! Using parallel search with 12 workers.
 ! ----------------------------------------------------------------------------
 !          Best Branches  Non-fixed    W       Branch decision
                        0        200                 -
 + New bound is 0
                        0        200                 -
 + New bound is 1
                        2        200    1   F   142 != node_37
 + New bound is 2
 *            30      202  0.05s        1      (gap is 93.33%)
 *            26      833  0.05s        7      (gap is 92.31%)
 *            24     1853  0.07s       12      (gap is 91.67%)
 *            22     3994  0.10s        6      (gap is 90.91%)
 *            20     6282  0.18s       12      (gap is 90.00%)
 *            18    17684  0.63s        8      (gap is 88.89%)
              18    37646        152    9   F   408 != node_23
 + New bound is 3 (gap is 83.33%)
              18    37684        152    9   F   380 != node_121
 + New bound is 4 (gap is 77.78%)
              18    46355        166    4   F   380 != node_121
 + New bound is 5 (gap is 72.22%)
[runlim] sample:		68.90 time, 10.01 real, 117 MB, 7.29 load
[runlim] sample:		147.85 time, 20.02 real, 119 MB, 7.21 load
[runlim] sample:		222.91 time, 30.01 real, 121 MB, 7.14 load
[runlim] sample:		300.10 time, 40.01 real, 122 MB, 7.08 load
[runlim] sample:		378.49 time, 50.02 real, 124 MB, 7.76 load
[runlim] sample:		456.04 time, 60.01 real, 124 MB, 7.73 load
[runlim] sample:		531.85 time, 70.01 real, 126 MB, 7.88 load
[runlim] sample:		611.48 time, 80.01 real, 128 MB, 7.78 load
[runlim] sample:		691.95 time, 90.01 real, 129 MB, 7.70 load
[runlim] sample:		769.17 time, 100.01 real, 130 MB, 8.36 load
[runlim] sample:		846.50 time, 110.01 real, 131 MB, 7.70 load
[runlim] sample:		922.95 time, 120.01 real, 131 MB, 6.74 load
[runlim] sample:		999.74 time, 130.01 real, 132 MB, 7.55 load
[runlim] sample:		1081.63 time, 140.01 real, 133 MB, 7.21 load
[runlim] sample:		1163.05 time, 150.01 real, 134 MB, 6.93 load
[runlim] sample:		1242.62 time, 160.01 real, 135 MB, 7.71 load
[runlim] sample:		1318.83 time, 170.01 real, 135 MB, 7.49 load
[runlim] sample:		1397.04 time, 180.01 real, 136 MB, 7.45 load
[runlim] sample:		1478.45 time, 190.02 real, 136 MB, 7.37 load
[runlim] sample:		1557.40 time, 200.01 real, 137 MB, 6.39 load
[runlim] sample:		1633.70 time, 210.01 real, 137 MB, 5.78 load
[runlim] sample:		1711.97 time, 220.01 real, 138 MB, 6.74 load
[runlim] sample:		1787.82 time, 230.01 real, 139 MB, 7.47 load
[runlim] sample:		1866.83 time, 240.01 real, 140 MB, 7.35 load
[runlim] sample:		1943.96 time, 250.01 real, 140 MB, 7.19 load
[runlim] sample:		2013.28 time, 260.02 real, 140 MB, 7.93 load
[runlim] sample:		2091.09 time, 270.01 real, 141 MB, 7.75 load
[runlim] sample:		2167.75 time, 280.01 real, 141 MB, 8.25 load
[runlim] sample:		2240.99 time, 290.01 real, 142 MB, 8.27 load
[runlim] sample:		2315.58 time, 300.01 real, 142 MB, 8.77 load
[runlim] sample:		2393.25 time, 310.02 real, 143 MB, 9.19 load
[runlim] sample:		2472.92 time, 320.01 real, 144 MB, 9.55 load
[runlim] sample:		2554.97 time, 330.01 real, 145 MB, 9.49 load
[runlim] sample:		2636.67 time, 340.02 real, 146 MB, 8.80 load
[runlim] sample:		2714.64 time, 350.01 real, 146 MB, 9.29 load
[runlim] sample:		2790.49 time, 360.01 real, 147 MB, 9.71 load
[runlim] sample:		2868.10 time, 370.02 real, 147 MB, 9.84 load
[runlim] sample:		2943.40 time, 380.01 real, 148 MB, 10.17 load
[runlim] sample:		3022.21 time, 390.01 real, 148 MB, 9.65 load
[runlim] sample:		3098.88 time, 400.01 real, 149 MB, 9.93 load
[runlim] sample:		3176.44 time, 410.01 real, 149 MB, 10.26 load
[runlim] sample:		3256.07 time, 420.01 real, 150 MB, 10.52 load
[runlim] sample:		3339.71 time, 430.01 real, 151 MB, 9.58 load
[runlim] sample:		3423.65 time, 440.01 real, 152 MB, 9.95 load
[runlim] sample:		3502.52 time, 450.01 real, 154 MB, 9.97 load
[runlim] sample:		3577.82 time, 460.01 real, 154 MB, 9.40 load
[runlim] sample:		3653.11 time, 470.01 real, 154 MB, 8.92 load
[runlim] sample:		3729.81 time, 480.02 real, 155 MB, 8.42 load
[runlim] sample:		3804.75 time, 490.01 real, 156 MB, 8.89 load
[runlim] sample:		3878.52 time, 500.01 real, 156 MB, 7.83 load
[runlim] sample:		3955.44 time, 510.01 real, 157 MB, 8.55 load
[runlim] sample:		4031.42 time, 520.01 real, 157 MB, 8.35 load
[runlim] sample:		4108.15 time, 530.01 real, 158 MB, 8.04 load
[runlim] sample:		4186.87 time, 540.01 real, 158 MB, 8.65 load
[runlim] sample:		4269.36 time, 550.02 real, 159 MB, 9.01 load
[runlim] sample:		4349.62 time, 560.02 real, 159 MB, 8.67 load
[runlim] sample:		4428.20 time, 570.01 real, 159 MB, 9.41 load
[runlim] sample:		4505.31 time, 580.01 real, 160 MB, 9.08 load
[runlim] sample:		4582.14 time, 590.01 real, 160 MB, 9.15 load
[runlim] sample:		4657.37 time, 600.02 real, 161 MB, 9.59 load
[runlim] end:			Wed Mar 25 04:34:07 2026
[runlim] status:		out of time
[runlim] result:		2
[runlim] children:		2
[runlim] processes:		3
[runlim] real:			601.07 seconds
[runlim] time:			4657.37 seconds
[runlim] space:			161 MB
[runlim] load:			10.52 maximum
[runlim] samples:		6000
